50, 641
48, 44
26, 31
44, 39
1, 3
18, 15
42, 46
37, 34
7, 3
8, 12
21, 19
20, 20
38, 33
23, 23
23, 26
32, 33
11, 16
17, 15
20, 17
9, 12
24, 22
36, 41
43, 45
49, 50
22, 24
2, 2
35, 37
45, 48
22, 25
10, 6
38, 34
42, 45
31, 26
48, 48
17, 15
9, 14
7, 11
1, 3
47, 46
50, 49
42, 44
1, 2
32, 36
8, 11
41, 37
7, 10
15, 16
32, 27
2, 2
40, 45
23, 20
